NAME : rnd15_50.tsp
TYPE : TSP
DIMENSION : 50
EDGE_WEIGHT_TYPE : EUC_2D
NODE_COORD_SECTION
1 127 481
2 875 886
3 698 872
4 439 266
5 301 926
6 422 309
7 900 428
8 665 135
9 581 981
10 257 688
11 836 369
12 734 409
13 702 584
14 56 426
15 286 1
16 210 606
17 343 438
18 258 92
19 271 361
20 141 436
21 659 714
22 620 579
23 597 113
24 88 147
25 323 273
26 264 678
27 599 739
28 222 53
29 814 56
30 113 279
31 280 271
32 860 285
33 266 100
34 756 559
35 335 388
36 653 681
37 646 391
38 668 647
39 715 830
40 892 950
41 940 375
42 647 860
43 342 672
44 590 199
45 849 358
46 561 379
47 82 441
48 189 268
49 42 640
50 427 525
